5194
500000
332772
332772
332035
332035
332035
332035
332035
332035
332035
332035
332035
332035
332035
332035
331735
331735
331735
331735
331735
331735
331735
331735
331164
331164
331164
331097
331097
331097
331097
331066
331066
331066
331066
331066
331066
331066
331066
331066
331066
331066
331066
331066
331066
330994
330994
330994
330994
330994
330994
330994
330994
330994
330994
330994
330994
330750
330750
330750
330750
330750
330750
330750
330750
330750
330750
330750
330553
330553
330553
330553
330553
330553
330553
330553
330553
330553
330553
330553
330553
330553
330553
330553
330553
330553
329850
329850
328906
328906
328906
328906
328906
328906
328906
328906
328906
328906
328906
328906
328906
328906
328906
328906
328906
328906
328906
328906
328585
328585
328585
328585
328585
328585
328585
328585
328585
328585
328585
327871
327871
327871
327871
327871
327871
327871
327795
327795
327795
327795
327795
327795
327795
327795
327795
327795
327795
327795
327597
327597
327597
327597
327597
327597
327597
327597
327597
327597
327597
327597
327597
327597
327597
327597
327597
327597
327597
327597
327403
327403
327403
327403
327403
327403
327403
327403
327403
327403
327403
326972
326972
326972
326972
326972
326972
326972
326972
326972
326972
326972
326972
326972
326972
326972
326972
326972
326792
326792
326792
326792
326792
326792
326792
326792
326792
326792
326792
326792
326655
326655
326655
326655
326655
326655
326655
325732
325732
325732
325732
325732
325732
325732
325732
325732
325732
325732
325732
325732
325732
325732
325732
325732
325732
325269
325269
325269
325269
325269
325269
325269
325269
325269
325269
325269
325269
325269
325269
325269
325269
323930
323930
323930
323930
323930
323930
323930
323930
323930
323277
323277
323277
323277
323277
323277
323277
323277
323277
323277
323277
323277
323277
323277
323277
323080
323080
323080
321314
321314
321314
321232
321232
321232
321232
321232
321232
321232
321232
321232
321232
320847
320847
320847
320847
320847
320847
320616
320616
320616
320616
320616
320616
320616
320616
320171
320171
320171
320171
320171
320171
320171
317643
317643
317643
316012
316012
316012
316012
316012
316012
316012
315457
315457
315457
315457
315457
315457
315457
315457
315457
315397
315080
315080
315080
315080
315080
315080
315080
315080
315080
315080
315080
314895
314895
314895
313791
313791
313791
313791
313791
313791
313791
313791
313791
313791
313791
313791
313791
313791
313791
313791
313791
313791
313612
313612
313612
313612
313612
313612
313612
313612
313612
313612
313103
313103
313103
313103
313103
313103
313103
313103
313103
313103
313103
313103
313103
313103
313103
313103
313103
313103
312826
312826
312826
312826
312826
312826
312826
312826
312826
312826
312826
312826
312826
312826
312826
312826
312826
312767
312767
312767
312767
312767
312767
312767
312767
312767
312767
312767
312767
312557
312557
312557
312557
312557
312557
312557
312557
311424
311424
311424
311424
311424
311424
311424
310675
310675
310675
310675
310675
308385
308385
308385
308385
308385
308139
307319
307319
307319
307319
306872
306872
306872
306872
306872
306872
306872
306872
305680
305680
305680
305680
305680
305680
305680
305680
305680
305680
305680
305680
305680
305680
305680
305680
305680
305680
305594
305594
305594
305594
305594
305594
305594
305594
305594
305594
305594
305466
305466
305466
305466
305466
305466
305466
305047
305047
305047
305047
305047
305047
305047
305047
305047
305047
304509
304509
302858
302858
302858
302858
302858
302858
302858
302858
302858
302858
302858
302858
302858
302858
302858
302858
302858
302858
302858
302858
301989
301989
301989
301989
301989
301989
301989
301989
300867
300634
300634
300634
300634
300254
300254
300254
300254
300254
300254
300254
300254
300254
300254
300254
300254
300254
300254
300254
300254
300254
300002
300002
300002
300002
300002
300002
298890
298890
298890
298890
298890
298890
298890
298761
298761
298761
298761
298761
298761
298761
298761
298761
297100
297100
297100
297100
297100
295914
295914
295914
295914
295914
295914
295914
295914
295914
295914
295914
295914
295914
295914
295914
295914
295914
295914
295914
295914
294630
294630
293417
293417
293417
293417
293417
293417
293417
293417
293417
293417
293417
293417
293417
292845
292845
292845
292845
292845
292845
292845
292845
292845
292845
292845
292845
292845
291836
291836
291836
291836
291836
291836
291836
291836
291836
291836
291836
291836
291836
291836
291323
291323
291323
291323
291323
291323
291323
291323
291323
291323
291323
291323
291323
291323
291323
291323
290349
290349
290349
290349
290349
290349
290349
290349
290349
290349
290349
290349
290349
290349
290349
290349
290349
290349
290349
290349
289999
289999
289999
289999
289999
289999
289999
289999
289999
289999
289999
289999
289999
289999
289999
289999
289999
289999
289186
289186
289186
289186
289186
289186
289186
289186
289023
289023
289023
289023
289023
289023
289023
289023
289023
289023
289023
289023
289023
289023
289023
289023
289023
289023
289023
289023
287799
287799
287799
287799
287799
287799
287799
287799
287799
287799
287799
287799
287799
287799
287799
287799
287799
287548
287548
287548
287548
287548
287548
287548
287186
287186
287186
287186
287186
287186
287186
287186
287186
287186
287186
287101
287101
287101
287101
287101
287101
287101
287101
287101
287101
287101
287101
287101
287101
287101
287101
287101
287101
286892
286892
286892
286892
286892
286892
286892
286892
286040
286040
286040
286040
286040
286040
286040
286040
286040
286040
286040
286040
286040
286040
284908
284908
284908
284908
284908
284908
284908
284908
284908
284908
284908
284908
284908
284908
284894
284894
284894
284894
284894
284894
284894
284894
284894
284394
284394
284394
284394
284394
284394
284394
284394
284394
284394
284394
284394
284394
284394
284394
284394
284394
284121
284121
282985
282985
282985
282985
282985
282985
282985
282985
282985
282985
282985
282768
282768
282768
282768
282768
282768
282768
282768
282768
282768
282768
282768
282768
282768
282768
282768
282451
282451
282451
282451
282451
282451
282451
282451
282451
282451
281836
281836
280933
280933
280933
280933
280933
280933
280933
280877
280877
280877
280877
280877
280877
280877
280877
280877
280877
280877
280877
280877
280877
280877
280877
280877
280877
280856
280856
280856
280856
280856
280856
280856
280856
280856
280856
280397
280397
280397
280397
280397
280397
280397
280397
280397
280397
280397
280397
280397
280397
280397
280397
280397
280397
279075
278552
278552
278552
278552
278552
278552
278552
278552
278552
278552
278552
278552
278552
278552
278552
278552
278552
278552
278552
278552
278157
278157
278157
278157
278157
278157
278157
278089
278089
276242
276242
276242
276242
276242
274675
274675
274675
274675
274675
274675
274675
274675
274675
274675
274675
274675
274675
274675
274675
274675
274675
274537
274537
274537
274537
274537
274537
274537
274537
274537
274537
274537
274537
274099
274099
274099
274099
274099
273743
273743
273068
273068
273068
273068
273068
273068
273068
273068
273068
272352
272352
272352
272352
272352
272352
272352
272352
272352
272352
272352
272352
272352
272352
272352
272352
272352
270862
270862
270862
270862
270643
270643
270643
270643
270643
270643
270643
270643
270643
270643
270643
270643
270643
270643
270643
270225
270225
270225
270225
270225
270225
270225
270225
270225
270225
270225
270225
270225
270225
270225
270188
269737
269737
269737
269737
269737
269737
269737
269737
269737
269737
269737
269737
269737
269460
269460
269460
269460
268623
268623
268623
268623
268623
268623
268623
268505
268505
268505
268505
268505
268505
268496
268496
268496
268496
268496
268496
268496
268496
268496
268496
268496
268496
268496
268496
268496
268496
268496
268496
268496
268496
268183
268183
268183
268183
268183
268183
268183
268183
268183
268183
268183
268183
268183
268183
268183
268183
268183
268183
268183
267995
267995
267995
267995
267323
267323
267323
267277
267277
267277
267277
267110
264031
264031
264031
264031
264031
264031
264031
264031
264031
264031
264031
264031
263057
263057
263057
263057
263057
263057
263057
263057
263057
263057
263057
263057
263057
261976
261976
261976
261976
261976
261976
261976
261976
261976
261976
261976
261976
261976
261976
261976
261976
261976
261976
261976
260982
260982
260982
260982
260982
260982
260982
260982
260982
260982
260982
260982
260982
260777
260777
260777
260777
260777
260777
260777
260777
260777
260777
260777
260777
260777
260777
260777
260777
259860
259860
259860
258886
258886
258886
258886
258886
258886
258886
258886
258886
258886
258886
258886
258886
258886
258886
258886
258886
258306
258306
258306
258262
258262
258262
258262
258262
258262
258262
258262
258262
258262
258262
258262
258262
258262
258262
258262
258262
258262
258262
257251
257251
257251
257251
257251
257251
257251
257251
257251
257251
257251
257251
256392
256392
256392
256392
256392
256392
256392
256392
254760
254760
254760
254760
254760
254760
254760
254760
254760
254760
254760
254760
254760
254760
254760
254760
254760
254760
253981
253981
253981
253981
253981
253981
253773
253773
253773
253773
253773
253773
253773
253773
253773
253773
253773
253517
253517
253517
253517
252811
252811
252811
252811
252811
252811
251987
251987
251987
251987
251987
251987
251987
251987
251987
251987
251987
251987
251987
251987
251077
251077
251077
251077
251077
251077
251077
251077
251077
251077
251077
251077
251077
251077
251077
250981
250981
250981
250981
250981
250981
250981
250981
250981
250981
250981
250981
250981
250981
250370
249441
249441
249441
249441
249441
249441
249441
249441
249441
249441
249441
249441
249441
249441
249441
249050
249050
249050
249050
249050
249050
249050
249050
249050
249050
249050
248228
248228
248228
248228
248228
248228
248228
248228
248228
248228
248228
248228
248228
247277
247277
247277
247277
247277
247277
247277
247277
247277
247277
247277
247277
247277
247277
247277
247277
247277
247277
247277
247277
245787
245787
245787
245787
245787
245787
245787
245787
245787
245787
245787
245787
245787
245787
245787
245787
245787
245787
245787
245787
245227
243596
243596
243596
243596
243596
243596
243596
243596
243532
243532
243532
243532
243532
243532
243532
243532
243532
243532
243532
243532
243532
243532
243532
243532
243048
243048
243048
243048
243048
243048
243048
243048
243048
243048
242626
242626
242626
242626
242626
242626
242626
242626
242626
242626
242626
242626
241814
241814
241814
241814
241814
241814
241814
241814
241814
241814
241814
241814
241814
241814
241814
241814
241814
241814
241814
241814
241811
241811
241811
240901
240901
240901
240901
240901
240901
240901
240901
240901
240901
240901
240901
240901
240901
240901
240901
240901
240901
240605
240605
240605
240605
240605
240605
240605
238649
238649
238025
238025
238025
238025
238025
238025
238025
238025
238025
238025
238025
238025
238025
238025
238025
238025
236239
236239
236239
236239
236239
236239
236239
236239
236239
236239
236239
236239
236239
236239
236239
236239
234854
233911
233911
233911
233911
233911
233911
233911
233911
233911
233778
233778
233778
233778
233778
233778
233778
233778
233778
233778
233778
233778
233778
233778
233778
233778
233778
233778
233778
233778
232629
232629
232629
232629
232629
232629
232629
232629
232629
232629
232629
232427
232427
232427
229850
229671
229671
229671
229671
229671
229043
229043
229043
229043
225328
225328
225328
225328
225328
225328
225328
225328
225328
225328
225328
224781
224781
224781
224781
224781
224781
224781
224781
224781
224781
224781
224781
224781
224781
224781
224411
224411
224411
224411
224411
224411
224411
224411
224411
224411
224411
224411
224411
224411
224411
223914
223710
223710
223710
223710
223710
223710
223710
223710
223710
223710
223710
223503
223503
223503
223503
223503
223503
223503
223503
223503
223503
223503
222239
222239
222239
222239
222239
222239
222239
222239
222239
222239
222239
222239
222239
222239
222239
222202
222202
222202
222202
222202
222202
222202
222202
222202
222202
222202
222202
222202
222202
222202
222202
222202
222202
222202
222202
222169
222169
222169
222169
222169
222169
222169
222169
220708
220708
220708
220708
220708
220708
220708
220708
220708
220708
220708
220708
220708
220708
220708
220708
219437
219437
219437
219437
219437
219437
219437
219437
218515
218515
218515
218515
218515
218515
218515
218515
218515
218515
218515
218515
218515
218515
218515
218515
218171
218171
218171
218171
218171
218171
218171
218171
218171
218171
218171
218171
218171
218171
218171
218171
218171
217931
217931
217931
217931
217931
217931
217931
217931
217931
217931
217931
217931
217931
217853
217853
217853
217853
217853
217853
217853
217853
217853
217853
217853
217853
216483
216483
216483
216483
216483
216483
216483
216483
216483
216483
216483
216483
216483
216483
216483
216483
216483
216109
216109
216109
216109
216109
216109
215423
215423
215423
215423
215423
215423
215423
215172
215172
215172
215172
215172
215172
215172
215172
215172
215172
215172
215172
214956
214956
214956
214956
214681
214681
214681
214681
214681
214681
214681
214681
214681
214681
214681
214681
214681
214681
214681
214681
214681
214681
214681
214646
214646
214198
214198
214198
214198
212705
212705
212705
212705
212705
212705
212705
211823
211823
211823
211823
211823
211823
210349
210349
210349
210349
210349
210349
210349
210349
210349
210349
210349
210349
210349
210349
209971
209971
209971
209971
209971
208819
208819
208819
208819
208819
208819
208819
208819
208819
208819
208369
208369
208369
208369
208369
208369
208369
208369
208369
208369
208369
208369
208369
208369
208057
208057
208057
208057
208057
208057
208057
207746
207746
207746
207746
207746
207746
207746
207746
207746
207746
206990
206990
206990
206990
206990
206990
206990
206990
206990
206990
206990
206612
206612
206612
206612
206612
206612
206612
206612
206612
206612
206612
206612
206612
206612
206612
206612
206612
206450
206450
206450
206450
206450
206450
206450
206450
206450
206450
206450
206450
206450
206450
206450
206450
206450
206450
204660
204660
204660
204660
204660
204660
204660
204660
204660
204660
204660
204660
204660
204660
204660
204660
204660
204660
204660
204660
202385
202385
202385
202385
202385
202385
201446
201446
201446
201446
201446
201446
201446
201446
201258
201258
201258
201258
201258
201258
201184
201184
201184
201184
201184
201184
201184
201184
201184
201184
201184
201184
201184
201184
201184
201184
200550
200550
200550
200550
200550
200550
200550
200550
200550
200550
200550
200550
200550
200550
199906
199906
199906
199906
199906
199906
199906
199906
199906
199906
199906
199906
199906
199906
199906
199906
199906
199556
199556
199556
199556
199556
199556
199556
199556
199556
199556
199556
199556
199556
199556
199224
199224
199224
199224
199224
199224
199224
199224
199224
199224
198160
198160
198160
198160
198160
198160
198160
198160
198160
198160
198160
198160
198160
198160
198160
198160
198160
196569
196569
196569
196569
196569
196569
196569
196569
196569
196569
196569
196569
196569
196569
196569
196569
196569
196569
196569
196569
196049
196049
196049
196049
196049
196049
196049
196049
196049
196049
196049
196049
196049
196049
196049
196049
195510
195510
195510
195510
195510
195510
195510
195510
195510
195510
195510
195510
195510
195510
195510
195510
195510
195262
195262
195262
195262
195262
195262
195262
195262
195262
195262
195262
195262
195262
195262
194979
194979
194979
194979
194979
193466
193466
193314
193314
193314
193104
193104
193104
193104
193104
193104
193104
192707
192707
189782
189782
189001
189001
189001
189001
189001
189001
189001
189001
189001
189001
189001
189001
189001
189001
189001
189001
189001
189001
189001
188616
188616
188147
188147
188147
188147
188147
188147
188147
188147
188147
188147
188131
188131
188131
188131
188131
188131
188131
188131
188131
188131
188131
188131
188131
188131
188131
188131
188131
187828
187828
187828
187625
187625
187625
187625
187625
187625
187162
187162
187162
187162
187162
187162
187162
187162
187162
187162
187162
187162
187162
187162
187162
187162
187040
187040
187040
187040
187040
187040
187040
187040
187040
187040
187040
187040
186982
186982
186982
186982
186982
186982
186982
186982
186982
186982
186982
186982
186982
186982
186982
186746
186535
186073
186073
185683
185683
185683
185683
185683
185683
185683
185683
185302
185302
185302
185302
185302
185302
185302
185302
185302
185302
185302
185302
185302
185302
185302
185302
185302
185302
185302
185302
185103
185103
185103
185103
184435
184435
184435
184435
184435
184435
184435
184435
183852
183852
183852
183852
183852
183852
183852
183852
183852
183852
183852
183852
183852
183852
183852
183852
183852
183199
183199
183199
183199
183199
183199
183199
183199
183199
183199
183199
183199
183199
183199
183199
180748
180748
180748
180748
180748
180748
180748
180748
180748
180748
180748
180287
180287
180287
180287
180287
180070
180070
180070
180070
180070
179847
179847
179847
179847
179847
179847
179847
179847
179847
179847
179847
179549
179549
179549
179549
179549
179549
179549
179549
179549
179549
179549
179549
179549
179549
179549
179549
179549
179549
179549
179549
178747
178747
178747
178747
178747
178747
178154
178154
178154
178154
178154
178154
178154
178154
178154
177778
177778
177778
177680
177680
177680
177680
177680
177680
177680
177680
177680
177680
177680
177680
177680
177680
177680
177680
177680
177680
175308
175308
175308
175308
175308
175308
175308
175308
174839
174839
174839
174839
174839
174839
174839
174839
171943
171943
171943
171943
171943
171943
171943
171943
171943
171943
171943
171943
171943
171943
171943
171943
171943
171943
171706
171706
171706
171706
171706
171706
171185
171185
171185
171185
171185
171185
171185
171185
171185
171185
171185
171185
171185
170944
170944
170944
170944
170944
170944
170944
170592
170592
170592
170592
170592
170592
170592
170592
170592
170592
170592
170592
170592
170592
170592
170592
170592
170592
170592
170404
170404
170404
170404
170404
170404
170404
170404
170404
170404
170404
170404
170404
170404
169493
169493
169493
169493
168315
168315
168315
167728
167728
167728
167728
167728
167728
167728
167728
167728
167728
167728
167728
167728
167728
167728
166517
166517
166517
166517
166517
166517
166517
166517
166517
166517
166517
166517
166517
166517
166517
166517
165652
165652
165652
165652
165652
165652
165652
165652
165652
165652
165652
165652
165652
165652
165580
165580
165580
165580
165580
165580
165580
165580
165580
165580
165580
165580
165580
165580
165580
164912
164912
164912
164912
164912
164912
164912
164912
164912
164912
164912
164912
164813
164813
164813
164813
164525
164525
164525
164525
164525
164525
164525
164525
164525
164525
164525
164525
164525
164092
164092
164092
164092
164092
164092
164092
164092
164092
164092
164092
164092
164092
164092
164092
164092
163897
163897
163897
163625
163625
163625
163625
163625
163625
163625
163625
160124
160124
160124
160124
160124
160124
159713
159713
159713
159713
159713
159713
159713
159713
159713
159713
159713
159713
159713
159713
159713
159713
159713
159713
159713
159713
159029
159029
159029
159029
159029
159029
159029
159029
159029
159029
159029
159029
159029
159029
159029
159029
159029
159029
159029
159029
158891
158891
158891
158891
158891
158891
158891
158891
158891
158891
158891
158891
158891
158793
158793
158503
158503
158503
158503
156849
156849
156849
156849
156849
156849
156849
156849
156849
156849
156849
156849
156749
156749
156749
156749
156749
156749
156749
156749
156749
156179
156179
156179
156179
156179
156179
156179
156179
156179
156179
156179
156179
156179
155907
155907
155907
155907
155907
155907
155907
155907
155907
155907
155907
155907
155907
155907
155907
155907
155907
155907
153610
153610
153610
153610
153610
153610
153610
153610
153610
153610
153610
153610
153610
153610
153610
153610
153610
153610
153610
152561
152561
152561
152561
152561
152561
152561
152561
152561
152561
152561
152561
152561
152561
152561
152561
152561
152561
152561
151303
151303
151303
151303
151303
151303
151303
151303
151303
151303
151303
151303
151303
150967
150967
150967
150967
148970
148970
148970
148770
148770
148770
148770
148770
148770
148770
148770
148589
148589
148589
148589
148589
148589
148589
148589
148589
148589
148589
147318
147318
147318
147318
147318
147318
147318
147318
147318
147318
147318
147318
147318
147318
147318
146781
146781
146781
146781
146781
146781
146781
146781
146781
146781
146781
146781
146781
146781
146781
146781
146781
146781
146781
144857
144857
144857
144857
144857
144857
144857
144857
144857
144857
144857
144857
144857
144660
144660
144660
144660
144660
144660
144660
144660
144660
144660
144660
144660
144660
144660
144660
144660
144660
144660
144645
144645
144645
144645
144645
144446
144446
144446
144446
144446
144446
144446
143946
143946
143946
143946
143946
142289
141459
141459
141459
141459
141459
140982
140982
140982
140982
140982
140982
140982
140982
140982
140982
140982
140982
140982
140958
140958
140958
140958
140958
140958
140958
140958
140958
140958
140683
140683
140683
140683
140683
140683
137851
137851
137851
137851
137851
137851
137851
137851
137851
137851
137851
137851
137851
137851
136483
136483
136483
136483
136173
133219
133219
133219
133219
133219
133219
133219
133219
133219
133219
133219
133219
133219
133219
133219
133219
133219
133219
133219
133065
133065
133065
133065
133065
133065
133065
133065
133065
133065
133065
133065
133065
133065
133065
133065
133065
132800
132800
132800
132800
132800
132800
132800
132800
132800
132800
132800
132800
132800
132800
132800
132800
132800
132800
132021
132021
132021
132021
132021
132021
132021
132021
132021
132021
132021
132021
132021
132021
132021
132021
131431
131431
130869
130869
130869
130869
130869
130869
130869
130869
130869
130638
130638
130638
130615
130615
129209
129209
129209
129209
129209
129209
129209
129209
129209
129209
129209
129209
128814
128814
128814
128814
128814
128814
128814
128814
128814
128814
127824
127824
127824
127824
127824
127824
127824
127824
127824
127824
127824
127824
127824
127824
127824
127824
127685
127685
127685
127685
127685
127685
127685
127685
127685
127685
127685
127685
127685
127651
127651
127651
127651
127389
127389
127389
127389
127389
127389
127389
127389
127389
127389
126771
126771
126771
126771
126771
126771
126771
126771
126771
126771
126557
126557
126557
126557
126557
125424
125424
125424
125424
125424
125424
125424
125424
125424
125407
125004
125004
125004
125004
125004
125004
125004
125004
124957
124957
124957
124957
124957
124957
124957
124957
124957
124957
124957
124957
124550
124550
123960
123960
123960
123960
123960
123960
121909
121909
121909
121909
121909
121909
121909
121909
121909
121909
121909
121909
121909
121909
121909
121909
121909
121371
121371
121371
121371
121371
121371
121371
121371
121371
121276
121276
121276
121276
121276
121276
120899
120899
120494
120085
120085
120085
120085
120085
120085
120085
120085
120085
119859
119859
119859
119859
119859
119859
119859
119859
119859
119859
118928
118928
118928
118928
118928
118928
118928
118928
118928
118928
118928
118928
118928
118289
118289
118289
118289
118289
118289
118289
118289
118289
118289
117972
117972
117972
117972
117972
117972
117972
117972
117868
117868
117868
117868
117868
117868
117868
117868
117868
117868
117868
117868
117868
117868
117868
117868
117868
117868
117868
117868
117386
117008
117008
117008
117008
117008
117008
117008
117008
117008
117008
117008
115744
115744
115744
115744
115744
115744
115744
115744
115744
115744
115744
115744
115356
115356
115356
115356
115356
115356
115356
115356
115356
115356
115356
115356
115356
114147
114147
114147
114147
114147
114147
114147
113972
113972
113972
113972
113972
113972
113972
113972
113972
113972
113972
113972
113972
113972
113972
113404
112508
112508
112508
112508
112508
112508
112508
112508
112508
112508
112508
112508
112508
112508
112508
112508
112508
112508
111686
111686
111686
111686
111686
111686
111686
111686
111686
111686
111686
111686
111686
111686
111686
110719
110719
110719
110719
110719
110719
110719
110719
110719
110719
110719
110719
110719
110719
110719
110719
110711
110711
110711
110711
110711
110711
110711
110711
110711
110711
110711
110711
110711
110711
110711
110711
110711
110711
110711
110711
107298
107298
107298
107298
107298
107298
107298
107298
107298
107298
107298
107298
107012
107012
107012
107012
107012
107012
107012
107012
107012
107012
107012
107012
107012
107012
107012
107012
107012
107012
107012
107012
106897
106897
106897
106897
106897
106897
106897
106897
106897
106897
106897
106897
106897
106897
106897
106897
106897
106897
106897
105655
105655
105655
105655
105655
105655
105655
105655
105655
105655
105655
105655
105655
105655
105655
105655
105655
105655
105655
105165
105165
105165
105165
105165
105165
105165
105165
105165
105165
105165
105165
105165
105165
105165
105165
105165
102516
102516
102516
102516
102516
102516
102516
102516
102516
102516
101486
101486
101486
101486
100977
100977
100977
100977
100977
100977
100977
100977
100977
100977
100977
100977
100977
100977
100977
100977
100977
100977
100977
100977
100951
100951
100951
100951
100578
100578
100578
100578
99426
99426
99426
99426
99426
99426
99426
99426
99426
98322
98322
98322
98322
98322
98322
98322
98296
98296
98296
98296
98296
98296
98296
98296
98296
98296
98296
98296
98296
98296
98296
98296
98126
98126
98126
98126
98126
98126
98126
98126
98126
98126
98126
98126
98126
98126
98126
98126
98126
98126
98126
97839
97839
97839
97839
97839
97839
97839
97839
97839
97839
97839
97839
97839
97839
97839
97627
97627
97627
97627
97627
97627
97627
97627
97627
97627
97627
97627
97627
97627
97627
97627
97627
97627
97627
97116
97116
97116
97116
97116
97116
97116
97116
97116
97116
97116
97116
96251
96251
96251
96251
96251
96251
96251
96251
96251
96251
96251
96251
96251
96251
96251
96251
96251
95161
95161
95161
95117
94827
94827
94827
94827
94827
94827
94827
94827
94827
94827
93793
93793
93299
93299
93299
93299
93299
93299
93299
93299
93299
93299
93299
93299
93299
93299
93299
93299
93299
93299
93299
92900
92900
92254
92254
92254
92254
92254
90656
90656
90656
90656
90656
90656
90656
90656
90656
90656
90656
90656
90656
90656
90462
90462
90462
90462
90462
90462
90462
90035
90035
90035
90035
90035
90035
90035
90035
90035
89987
89987
89987
89987
89987
89987
89987
89987
89987
89987
89987
88887
88854
88854
88854
88854
88854
88854
88854
88854
88854
88854
88854
88854
88854
88782
88782
88782
87894
87894
87894
87894
87894
87894
87894
87873
87873
87873
87342
87342
87342
86166
86166
86166
86166
86166
86166
86166
86166
86166
86166
86166
86166
86166
86166
86166
86166
86166
84788
84788
83879
83879
83879
83879
83879
83879
83879
83879
83879
83879
83879
83879
83879
83879
83879
83256
83256
83256
82720
82720
82720
82720
82720
82720
82720
82720
82720
82717
82717
82717
82717
82717
82717
82717
82717
82717
82717
82717
82717
82717
82717
82717
82717
82717
82717
82717
82717
81991
81991
81991
81991
81991
81880
81880
81880
81880
81880
81880
81880
81880
81880
81438
81438
81438
81438
81438
81438
81438
80561
80561
80561
80561
80561
80561
80561
79866
79866
79866
79866
79866
79866
79866
79866
79866
79866
79866
79866
79866
79866
79866
79866
79866
79866
77840
77840
77840
77840
77840
77840
77840
77840
77840
77840
77668
77668
77668
77668
77668
77668
77668
77668
77668
77668
77668
77668
77668
77668
76548
76548
76548
76548
76548
76548
76548
76548
76548
76548
76548
76548
76548
76548
76548
76548
76548
76548
76149
76149
75665
75665
75665
75665
75665
75665
75665
75665
75665
75665
75665
75665
75665
75665
75665
75665
75665
75665
75665
75621
75621
75621
75621
75621
75621
75621
75621
75621
75621
75621
75621
75621
75621
75621
75621
75621
75621
75621
75621
75364
75364
75364
75364
75364
74907
74907
74907
74907
74907
74907
74907
74907
74895
73611
73611
73611
73611
73611
73611
73611
73611
73611
73611
73611
73611
73112
73112
73112
73112
72851
72851
72851
72851
72851
72851
72851
72851
72851
72851
72851
72851
72851
72851
72523
72523
72523
72523
72523
72523
72523
72523
72523
72523
72523
72523
72523
72055
72055
70854
70854
70426
69373
69373
69373
69373
69373
69333
69333
69333
69333
69333
69333
69333
69333
69333
69333
69333
69333
68979
68979
68979
68979
68979
68979
68979
68979
68979
68979
68979
68979
68979
68979
68979
68979
68979
68979
68566
68566
68566
68566
68566
68566
68566
68566
68566
68566
68566
68566
68566
68314
68314
68314
68314
68314
68314
68314
68314
67953
67953
67953
67953
67953
67953
67953
67953
67953
67953
67953
67953
67953
67946
67469
67469
67034
67034
67034
67034
67034
67034
66230
66230
66230
66230
66230
66230
66230
66230
66230
66230
66230
66230
66230
66230
66230
66230
66230
66230
65161
65161
65161
65161
65161
65161
65161
65161
65161
65161
65161
65072
65072
65072
65029
65029
65029
65029
65029
65029
65029
65029
65029
65029
65029
65029
65029
65029
65029
65029
65029
65029
65029
64695
64695
64695
64695
64695
64695
64379
64071
64071
64071
64071
64071
64071
64071
64071
64071
64071
64071
64071
64036
64036
64036
64036
64036
64036
64036
64036
64036
64036
64036
64036
64036
62730
62730
62730
62730
62730
62730
61357
61357
61357
61357
61357
61357
61357
61357
61357
61357
61357
61357
60881
60881
60881
60881
60881
60881
60881
60881
60881
60881
60881
60881
60881
60147
60147
59863
59863
59863
59863
59863
59863
59863
58757
58757
58757
58757
58757
58757
58757
58757
58757
58757
58757
58757
58757
58757
58757
58757
58757
58482
58482
58482
58482
58482
58482
58482
58482
58482
58482
58482
58482
58482
58482
58482
58482
58482
58482
56802
56802
56802
56802
56802
56802
56802
56802
56802
56802
56802
56802
56802
56802
56802
56802
56802
56802
56802
56566
56566
56339
56339
56339
56339
56339
56339
56339
55702
55702
55702
55702
55702
55702
55702
55702
55702
55702
55702
55635
55635
55635
55635
55635
55635
55635
55635
55635
55635
55130
55130
55130
55130
55130
55130
55130
55130
55130
55130
55130
55130
55130
54065
54065
54065
54065
54065
54065
54065
53969
53969
53969
53969
53969
53969
53969
53969
53969
53969
53969
53969
53969
53969
53969
53969
53969
53969
53969
53856
53856
53856
53856
51019
51019
51019
51019
51019
51019
51019
51019
51019
51019
51019
51019
51019
51019
51019
51019
50805
50805
50805
50805
50805
50805
50805
50805
50805
50805
50805
50805
50805
50805
50805
47236
47236
47236
47236
47236
47236
47236
46962
46962
46962
46962
46962
46962
46962
46962
46962
46962
46962
46962
46962
46443
46443
46443
46443
46443
46443
46443
46443
44176
44176
44176
44176
44176
44176
44176
44176
44176
44176
44176
44085
44085
44085
44085
44085
44085
44085
44085
44085
44085
44085
44085
44085
44085
43380
43380
43380
43380
43380
43380
43380
43380
43380
43380
43380
43380
43380
43380
43380
43380
43380
43380
43380
43380
43079
43079
43079
43079
43079
43079
43079
43079
43079
42847
42847
42847
42847
42847
42826
42749
42749
42749
42749
42749
42749
42749
42749
42749
42749
41909
41909
41909
41909
41909
41909
41909
41909
41909
41267
41267
41267
41267
41267
41267
40572
40572
40572
40572
40572
40572
40572
40572
39531
39531
39531
39531
39531
39531
39531
39531
39531
39531
39531
39531
39531
39531
39260
39260
39260
39260
39211
39211
39211
39211
39069
39069
39069
39069
39069
39069
39069
39069
39069
39069
39069
39069
39069
38898
38898
38898
38898
38898
38898
38898
38898
38898
38898
38898
38018
38018
38018
38018
38018
38018
38018
38018
38018
38018
38018
38018
38018
38018
38018
38018
38018
38018
38018
38018
36536
36351
36351
36351
36351
36351
36351
36351
36351
36351
36351
36351
36351
36351
36351
35791
35791
35688
35688
35688
35688
35688
35688
35688
35688
35688
35688
35688
35688
35688
35688
35022
35022
35022
35022
35022
35022
35022
35022
35022
35022
35022
35022
35022
34693
34693
34693
34693
34693
34693
34693
34693
34693
34693
34693
34693
34693
34693
34693
34693
33722
33722
33722
33291
33291
33291
33291
33291
33291
33291
33291
33291
33291
33291
33291
33254
33254
33254
33254
33254
33254
33254
33254
33254
33254
33254
33254
33254
33254
33254
33254
33254
33254
33254
32607
32607
32607
32607
32607
32607
32607
32550
32550
32550
32550
32550
32550
32550
32550
32550
32550
32550
32550
32550
32550
32550
32550
32550
32550
32550
32286
32286
32286
32286
32286
32286
32286
32286
32286
32286
32191
32191
32191
32191
32191
32191
32191
32191
32191
32191
32191
32191
32191
32191
32191
32191
32191
32191
31466
31466
31466
31466
31466
31466
31466
31466
31466
31466
31466
31466
31466
31466
31466
31466
31466
29170
29170
29170
29170
29170
29170
29170
29170
29170
29170
29170
29170
29170
29170
29170
29170
29170
29170
29170
29170
28543
28543
28543
28543
28543
28543
28543
28543
28543
28543
28543
28543
28543
28543
28543
28543
28543
28543
28543
27671
27671
27671
27671
27671
27671
27671
27671
27671
27671
27671
27671
27671
27671
27671
27671
26303
26303
26303
26303
26303
26303
26303
26303
26172
26172
26172
26172
26172
26172
26172
26172
26172
26172
26172
25567
25567
25567
25567
25567
25567
25567
25567
25567
25567
25567
25567
25567
25567
25567
25567
25567
25567
25567
25567
23630
23630
23630
23630
23630
23630
23630
23630
23630
23630
23630
23630
23630
23630
23630
23630
23630
23630
23630
23322
23322
23322
23322
23322
23322
23322
23322
23322
23322
23322
23322
23231
23231
23231
23231
23231
23231
23231
23231
23231
23231
23231
23231
23231
23231
23231
23231
21980
21980
21980
21980
21922
21922
21922
20963
20963
20963
20963
20963
20963
20963
20904
20904
20904
20515
20515
20515
20515
20515
20515
20515
20515
20515
20515
20515
20515
19953
19953
19953
19953
19953
19953
19953
19953
19953
19953
19953
19953
19953
19953
19953
19953
19953
19953
19953
19953
18278
18278
18278
18278
18278
18278
18278
18278
18278
18278
18278
18278
18278
18278
18278
18278
18278
17948
17948
17948
17948
17948
17948
17948
17948
17948
17948
17948
17948
17884
17884
17884
17884
17884
17884
17884
17884
17884
17884
17884
17884
17884
17884
17884
17884
17884
17884
17878
17878
17878
17878
17878
17878
17878
17878
17878
17878
17878
17878
17878
17878
17878
17878
17878
15847
15847
15847
15847
15847
15847
15847
15847
15847
15847
15847
15847
15176
15176
15176
15176
15176
15176
15176
15176
15176
15176
15167
15167
15167
15167
14752
14752
13248
13248
13248
13248
13248
13248
13248
13248
13248
13248
13248
13248
13248
11702
11702
11702
11702
11371
11371
11371
11371
11371
11371
11371
11371
11371
11371
11371
11371
10696
10696
10696
10696
10696
10696
10696
10696
10696
10696
10696
8021
8021
8021
7346
7346
7346
7346
7346
7346
7346
7346
7346
7346
7346
7346
7346
7346
7346
7346
7346
7346
7346
6472
6472
6472
6472
6472
6472
6472
6472
6472
6472
6472
6472
6472
6472
6472
6472
6472
5949
5949
5949
5949
5127
5127
5127
5127
5127
5127
5127
5127
5127
5127
5127
5127
5127
4121
4121
4121
4121
4121
4121
4121
4121
4121
4121
4121
4121
4007
4007
4007
4007
4007
4007
4007
4007
4007
4007
4007
4007
4007
4007
4007
